NAME : XML100_3365_03
DIMENSION : 101
NB_CLUSTERS : 34
CLUSTERING_ALG : DBSCAN
CLUSTERING_PARAMS : eps(19), minSamples(3)
CLUSTERS
1 0
2 34 37 43 52 97
3 36 39 47 62 66 75 94 99
4 41 79
5 17 60 90 100
6 10 25
7 15 89
8 18 20 91
9 30 33
10 51 72
11 65 73 81 87
12 5 86
13 13 46 84
14 23 69 93
15 4 6 8 42 68 77 80 85
16 53 63
17 2 12 59
18 21 27 56 82
19 11 92
20 28 58 67
21 45 61 88
22 35 78
23 9 54 71
24 40 48
25 3 70
26 24 38 57 98
27 16 32 95
28 83 96
29 19 76
30 29 50 55 64
31 14 49
32 7 44 74
33 26 31
34 1 22
EOF